p cnf 299 586
e 1 2 3 4 5 6 7 8 9 10 11 12 13 14 15 16 17 18 19 20 21 22 23 24 25 26 27 28 29 30 31 32 33 34 35 36 37 38 39 40 41 42 43 44 45 46 47 48 49 50 51 52 53 54 55 56 57 58 59 60 61 62 63 64 65 66 67 68 69 70 71 72 73 74 75 76 77 78 79 80 81 82 83 84 85 86 87 88 89 90 91 92 93 94 95 96 97 98 99 100 101 102 103 104 105 106 107 108 109 110 111 112 113 114 115 116 117 118 119 120 121 122 123 124 125 126 127 128 129 130 131 132 133 134 135 136 137 138 139 140 141 142 143 144 145 146 147 148 149 150 151 152 153 154 155 156 157 158 159 160 161 162 163 164 165 166 167 168 169 170 171 172 173 174 175 176 177 178 179 180 181 182 183 184 185 186 187 188 189 190 191 192 193 194 195 196 197 198 199 200 201 202 203 204 205 206 207 208 209 210 211 212 213 214 215 216 217 218 219 220 221 222 223 224 225 226 227 228 229 230 231 232 233 234 235 236 237 238 239 240 241 242 243 244 245 246 247 248 249 250 251 252 253 254 255 256 257 258 259 260 261 262 263 264 265 266 267 268 269 270 271 272 273 274 275 276 277 278 279 280 281 282 283 284 285 286 287 288 289 290 291 292 293 294 295 296 297 299 298 0
-223 0
246 0
-33 0
-45 0
-48 0
-170 0
183 0
-228 0
-11 0
-57 0
-122 0
-149 0
-161 0
-71 0
-4 0
-10 0
-28 0
-37 0
-41 0
-9 0
-60 0
-128 0
-131 0
-221 0
194 0
-196 0
-14 0
-68 0
-34 0
-70 0
-232 0
-225 0
-53 0
-104 0
-234 0
-5 0
-35 0
-27 0
-30 0
182 0
184 0
171 0
-39 0
180 0
-230 0
-15 0
-58 0
-134 0
187 0
-23 0
-26 0
-22 0
-101 0
-125 0
195 0
-36 0
-69 0
-167 0
-239 0
-236 0
-231 0
-226 0
-7 0
-67 0
-72 0
-158 0
175 0
189 0
-20 0
-2 0
-47 0
-3 0
-18 0
-143 0
185 0
-19 0
-61 0
-29 0
-113 0
-222 0
-238 0
-42 0
-64 0
1 0
-17 0
-50 0
-12 0
-13 0
-164 0
-245 0
-8 0
-46 0
-6 0
-51 0
179 0
-243 0
-56 0
-49 0
-54 0
-110 0
-235 0
-296 0
-55 0
172 0
173 0
192 0
-242 0
-16 0
-21 0
-40 0
-244 0
-237 0
-240 0
-233 0
-32 0
-24 0
-107 0
181 0
193 0
-25 0
-43 0
-155 0
191 0
-38 0
-65 0
-52 0
-116 0
178 0
186 0
-227 0
188 0
-241 0
-229 0
-62 0
-31 0
-119 0
-146 0
174 0
-73 0
176 0
-66 0
-137 0
-152 0
-224 0
-44 0
-59 0
-63 0
-140 0
177 0
190 0
-99 100 0
99 -100 0
-102 103 0
102 -103 0
-105 106 0
105 -106 0
-108 109 0
108 -109 0
-111 112 0
111 -112 0
-114 115 0
114 -115 0
-117 118 0
117 -118 0
-120 121 0
120 -121 0
-123 124 0
123 -124 0
-126 127 0
126 -127 0
-129 130 0
129 -130 0
-132 133 0
132 -133 0
-135 136 0
135 -136 0
-138 139 0
138 -139 0
-141 142 0
141 -142 0
-144 145 0
144 -145 0
-147 148 0
147 -148 0
-150 151 0
150 -151 0
-153 154 0
153 -154 0
-156 157 0
156 -157 0
-159 160 0
159 -160 0
-162 163 0
162 -163 0
-165 166 0
165 -166 0
-168 169 0
168 -169 0
74 -100 0
74 -103 0
74 -106 0
74 -109 0
74 -112 0
74 -115 0
74 -118 0
74 -121 0
74 -124 0
74 -127 0
74 -130 0
74 -133 0
74 -136 0
74 -139 0
74 -142 0
74 -145 0
74 -148 0
74 -151 0
74 -154 0
74 -157 0
74 -160 0
74 -163 0
74 -166 0
74 -169 0
75 -100 0
76 -103 0
77 -106 0
78 -109 0
79 -112 0
80 -115 0
81 -118 0
82 -121 0
83 -124 0
84 -127 0
85 -130 0
86 -133 0
87 -136 0
88 -139 0
89 -142 0
90 -145 0
91 -148 0
92 -151 0
93 -154 0
94 -157 0
95 -160 0
96 -163 0
97 -166 0
98 -169 0
247 -297 -100 -103 0
-247 297 0
-247 100 0
-247 103 0
248 -106 -109 -112 0
-248 106 0
-248 109 0
-248 112 0
249 -115 -118 -121 0
-249 115 0
-249 118 0
-249 121 0
250 -298 -124 -127 0
-250 298 0
-250 124 0
-250 127 0
251 -130 -133 -136 0
-251 130 0
-251 133 0
-251 136 0
252 -139 -142 -145 0
-252 139 0
-252 142 0
-252 145 0
253 -299 -148 -151 0
-253 299 0
-253 148 0
-253 151 0
254 -154 -157 -160 0
-254 154 0
-254 157 0
-254 160 0
255 -163 -166 -169 0
-255 163 0
-255 166 0
-255 169 0
256 -297 -106 -115 0
-256 297 0
-256 106 0
-256 115 0
257 -298 -130 -139 0
-257 298 0
-257 130 0
-257 139 0
258 -299 -154 -163 0
-258 299 0
-258 154 0
-258 163 0
259 -100 -109 -118 0
-259 100 0
-259 109 0
-259 118 0
260 -124 -133 -142 0
-260 124 0
-260 133 0
-260 142 0
261 -148 -157 -166 0
-261 148 0
-261 157 0
-261 166 0
262 -103 -112 -121 0
-262 103 0
-262 112 0
-262 121 0
263 -127 -136 -145 0
-263 127 0
-263 136 0
-263 145 0
264 -151 -160 -169 0
-264 151 0
-264 160 0
-264 169 0
265 -297 -109 -121 0
-265 297 0
-265 109 0
-265 121 0
266 -298 -133 -145 0
-266 298 0
-266 133 0
-266 145 0
267 -299 -157 -169 0
-267 299 0
-267 157 0
-267 169 0
268 -103 -109 -115 0
-268 103 0
-268 109 0
-268 115 0
269 -127 -133 -139 0
-269 127 0
-269 133 0
-269 139 0
270 -127 -133 -139 0
-270 127 0
-270 133 0
-270 139 0
271 -297 -298 -299 0
-271 297 0
-271 298 0
-271 299 0
272 -100 -124 -148 0
-272 100 0
-272 124 0
-272 148 0
273 -103 -127 -151 0
-273 103 0
-273 127 0
-273 151 0
274 -106 -130 -154 0
-274 106 0
-274 130 0
-274 154 0
275 -109 -133 -157 0
-275 109 0
-275 133 0
-275 157 0
276 -112 -136 -160 0
-276 112 0
-276 136 0
-276 160 0
277 -115 -139 -163 0
-277 115 0
-277 139 0
-277 163 0
278 -118 -142 -166 0
-278 118 0
-278 142 0
-278 166 0
279 -121 -145 -169 0
-279 121 0
-279 145 0
-279 169 0
280 -297 -130 -163 0
-280 297 0
-280 130 0
-280 163 0
281 -100 -133 -166 0
-281 100 0
-281 133 0
-281 166 0
282 -103 -136 -169 0
-282 103 0
-282 136 0
-282 169 0
283 -115 -130 -299 0
-283 115 0
-283 130 0
-283 299 0
284 -118 -133 -148 0
-284 118 0
-284 133 0
-284 148 0
285 -121 -136 -151 0
-285 121 0
-285 136 0
-285 151 0
286 -297 -124 -151 0
-286 297 0
-286 124 0
-286 151 0
287 -106 -133 -160 0
-287 106 0
-287 133 0
-287 160 0
288 -115 -142 -169 0
-288 115 0
-288 142 0
-288 169 0
289 -103 -124 -299 0
-289 103 0
-289 124 0
-289 299 0
290 -112 -133 -154 0
-290 112 0
-290 133 0
-290 154 0
291 -121 -142 -163 0
-291 121 0
-291 142 0
-291 163 0
292 -297 -133 -169 0
-292 297 0
-292 133 0
-292 169 0
293 -103 -133 -169 0
-293 103 0
-293 133 0
-293 169 0
294 -115 -133 -151 0
-294 115 0
-294 133 0
-294 151 0
295 -121 -133 -299 0
-295 121 0
-295 133 0
-295 299 0
247 248 249 250 251 252 253 254 255 256 257 258 259 260 261 262 263 264 265 266 267 268 269 270 271 272 273 274 275 276 277 278 279 280 281 282 283 284 285 286 287 288 289 290 291 292 293 294 295 0
-75 197 0
75 -197 0
-76 198 0
-197 198 0
76 -198 197 0
-76 -197 0
-77 199 0
-198 199 0
77 -199 198 0
-77 -198 0
-78 200 0
-199 200 0
78 -200 199 0
-78 -199 0
-79 201 0
-200 201 0
79 -201 200 0
-79 -200 0
-80 202 0
-201 202 0
80 -202 201 0
-80 -201 0
-81 203 0
-202 203 0
81 -203 202 0
-81 -202 0
-82 204 0
-203 204 0
82 -204 203 0
-82 -203 0
-83 205 0
-204 205 0
83 -205 204 0
-83 -204 0
-84 206 0
-205 206 0
84 -206 205 0
-84 -205 0
-85 207 0
-206 207 0
85 -207 206 0
-85 -206 0
-86 208 0
-207 208 0
86 -208 207 0
-86 -207 0
-87 209 0
-208 209 0
87 -209 208 0
-87 -208 0
-88 210 0
-209 210 0
88 -210 209 0
-88 -209 0
-89 211 0
-210 211 0
89 -211 210 0
-89 -210 0
-90 212 0
-211 212 0
90 -212 211 0
-90 -211 0
-91 213 0
-212 213 0
91 -213 212 0
-91 -212 0
-92 214 0
-213 214 0
92 -214 213 0
-92 -213 0
-93 215 0
-214 215 0
93 -215 214 0
-93 -214 0
-94 216 0
-215 216 0
94 -216 215 0
-94 -215 0
-95 217 0
-216 217 0
95 -217 216 0
-95 -216 0
-96 218 0
-217 218 0
96 -218 217 0
-96 -217 0
-97 219 0
-218 219 0
97 -219 218 0
-97 -218 0
-98 220 0
-219 220 0
98 -220 219 0
-98 -219 0
-74 220 0
-75 100 0
-75 74 0
-76 103 0
-76 74 0
-77 106 0
-77 74 0
-78 109 0
-78 74 0
-79 112 0
-79 74 0
-80 115 0
-80 74 0
-81 118 0
-81 74 0
-82 121 0
-82 74 0
-83 124 0
-83 74 0
-84 127 0
-84 74 0
-85 130 0
-85 74 0
-86 133 0
-86 74 0
-87 136 0
-87 74 0
-88 139 0
-88 74 0
-89 142 0
-89 74 0
-90 145 0
-90 74 0
-91 148 0
-91 74 0
-92 151 0
-92 74 0
-93 154 0
-93 74 0
-94 157 0
-94 74 0
-95 160 0
-95 74 0
-96 163 0
-96 74 0
-97 166 0
-97 74 0
-98 169 0
-98 74 0
